language ESSENCE' 1.0
letting mainRow be 3
letting mainCol be 19
letting topRows be 2
letting leftCols be 10
letting leftMatrix be [
[2, 1, 2, 3, 0, 0, 0, 0, 0, 0],
[3, 2, 2, 3, 3, 0, 0, 0, 0, 0],
[4, 1, 1, 1, 3, 0, 0, 0, 0, 0],
]
letting topMatrix be [
[2, 2, 2, 1, 2, 2, 0, 0, 2, 2, 1, 1, 1, 2, 1, 1, 3, 3, 2],
[0, 0, 0, 1, 0, 0, 0, 0, 0, 0, 0, 0, 0, 0, 0, 0, 0, 0, 0],
]